20
5
2005003
0
0
69 72 72 72 71 
1
0
62 57 54 63 58 
2
0
4 10 7 7 11 
3
0
57 55 52 58 58 
4
0
23 24 19 25 17 
5
0
93 90 95 93 96 
6
0
24 31 22 28 24 
7
0
32 32 29 30 30 
8
0
29 31 34 32 28 
9
0
37 42 39 43 40 
10
0
25 25 15 19 23 
11
0
56 50 49 51 50 
12
0
83 77 78 82 81 
13
0
39 36 45 43 45 
14
0
15 14 12 10 20 
15
0
41 46 42 44 45 
16
0
21 27 22 18 25 
17
0
66 60 67 70 69 
18
0
50 50 48 51 52 
19
0
74 67 68 70 64 
